c FILE /home/rafael/Documents/HappySet/MIHS/inputs/happygen/output/graph_d_regular_k10_p0.2_v50_20241127_082658.txt
c SOURCE This is a d-regular graph formed for the happy graph colouring problem.
c DESCRIPTION It was generated using the problem generator of Rhyd Lewis
c
c GRAPH STATS
c Seed                             = -683457891
c Number of Nodes                  = 50
c Number of colours k              = 10
c Number of pre-assignments        = 10
c Degree of all vertices           = 6
c Density                          = 0.122449
c 
c The degrees of nodes 1 to 50, respectively, are as follows 
c [6, 6, 6, 6, 6, 6, 6, 6, 6, 6, 6, 6, 6, 6, 6, 6, 6, 6, 6, 6, 6, 6, 6, 6, 6, 6, 
c  6, 6, 6, 6, 6, 6, 6, 6, 6, 6, 6, 6, 6, 6, 6, 6, 6, 6, 6, 6, 6, 6, 6, 6] 
c  
p edge 50 150 10
e 1 10
e 1 11
e 1 19
e 1 21
e 1 26
e 1 27
e 2 24
e 2 32
e 2 36
e 2 46
e 2 47
e 2 50
e 3 6
e 3 13
e 3 14
e 3 18
e 3 29
e 3 47
e 4 13
e 4 30
e 4 34
e 4 39
e 4 42
e 4 50
e 5 14
e 5 15
e 5 22
e 5 29
e 5 34
e 5 37
e 6 7
e 6 8
e 6 23
e 6 31
e 6 42
e 7 9
e 7 26
e 7 31
e 7 40
e 7 44
e 8 10
e 8 13
e 8 22
e 8 24
e 8 29
e 9 23
e 9 30
e 9 36
e 9 40
e 9 45
e 10 11
e 10 28
e 10 30
e 10 50
e 11 15
e 11 19
e 11 21
e 11 33
e 12 17
e 12 22
e 12 24
e 12 31
e 12 36
e 12 42
e 13 20
e 13 46
e 13 50
e 14 25
e 14 33
e 14 47
e 14 48
e 15 21
e 15 25
e 15 43
e 15 48
e 16 23
e 16 24
e 16 26
e 16 38
e 16 44
e 16 47
e 17 30
e 17 34
e 17 37
e 17 44
e 17 48
e 18 20
e 18 26
e 18 37
e 18 41
e 18 46
e 19 20
e 19 25
e 19 47
e 19 48
e 20 28
e 20 43
e 20 49
e 21 24
e 21 32
e 21 35
e 22 25
e 22 27
e 22 47
e 23 32
e 23 41
e 23 43
e 24 43
e 25 45
e 25 49
e 26 28
e 26 46
e 27 35
e 27 39
e 27 44
e 27 46
e 28 31
e 28 33
e 28 36
e 29 31
e 29 46
e 29 49
e 30 34
e 30 49
e 31 35
e 32 35
e 32 36
e 32 41
e 33 39
e 33 40
e 33 42
e 34 37
e 34 40
e 35 37
e 35 38
e 36 43
e 37 38
e 38 39
e 38 42
e 38 45
e 39 44
e 39 45
e 40 41
e 40 50
e 41 42
e 41 48
e 43 44
e 45 49
e 45 50
e 48 49
n 3 5
n 15 10
n 16 3
n 19 6
n 27 9
n 28 2
n 30 7
n 32 4
n 42 1
n 50 8
